TITL 03srv209 in Pbca
CELL 0.71073   7.350   9.541  12.842  90.000  90.000  90.000
ZERR    4.00   0.002   0.002   0.003   0.000   0.000   0.000
LATT  1
SYMM 0.5-X, -Y, 0.5+Z
SYMM -X, 0.5+Y, 0.5-Z
SYMM 0.5+X, 0.5-Y, -Z
SFAC C H O N
UNIT 32 40 16 8
TEMP -153
ACTA
L.S. 6
BOND $H
FMAP 2
PLAN 5
WGHT    0.054500    0.220600
EXTI    0.034016
FVAR       0.89220
N     4    0.544830    0.114061    0.104838    11.00000    0.02004    0.01586 =
         0.01943   -0.00094   -0.00096    0.00161
H1    2    0.575758    0.027736    0.086733    11.00000    0.03669
O2    3    0.362893    0.160589   -0.035913    11.00000    0.03926    0.02517 =
         0.02140   -0.00415   -0.00810    0.01009
O3    3    0.696722    0.119176    0.260657    11.00000    0.02838    0.02133 =
         0.02918    0.00011   -0.01030   -0.00048
C1    1    0.432360    0.196651    0.046472    11.00000    0.02226    0.01792 =
         0.01857    0.00058    0.00123    0.00249
C2    1    0.411568    0.336421    0.100062    11.00000    0.02867    0.01555 =
         0.02069    0.00053   -0.00070    0.00268
H21   2    0.458588    0.411377    0.053800    11.00000    0.03534
H22   2    0.282219    0.352787    0.112209    11.00000    0.03129
C3    1    0.522448    0.322965    0.200394    11.00000    0.02158    0.01556 =
         0.02255   -0.00189   -0.00049   -0.00115
H31   2    0.622067    0.388772    0.206232    11.00000    0.02952
H32   2    0.446600    0.329950    0.262683    11.00000    0.02673
C4    1    0.601261    0.176489    0.196615    11.00000    0.01844    0.01705 =
         0.02123   -0.00033   -0.00071   -0.00284
 
HKLF 4
 
REM  03srv209 in Pbca
REM R1 =  0.0331 for   1195 Fo > 4sig(Fo)  and  0.0355 for all   1314 data
REM     85 parameters refined using      0 restraints
 
END  
     
WGHT      0.0536      0.2259 
REM Highest difference peak  0.330,  deepest hole -0.210,  1-sigma level  0.046
Q1    1   0.5622  0.2496  0.2006  11.00000  0.05    0.33
Q2    1   0.4189  0.2682  0.0749  11.00000  0.05    0.33
Q3    1   0.5706  0.1441  0.1462  11.00000  0.05    0.29
Q4    1   0.4966  0.1552  0.0716  11.00000  0.05    0.29
Q5    1   0.4666  0.3316  0.1506  11.00000  0.05    0.26
