TITL A 6-ring with a disordered pair of neighbours
CELL 0.71073   7.0430  15.4950   9.0008  90.000  90.000  90.000
ZERR    4.00   0.0001   0.0002   0.0001   0.000   0.000   0.000
REM Pna2(1)
LATT -1
SYMM -X, -Y, 0.5+Z
SYMM 0.5+X, 0.5-Y, Z
SYMM 0.5-X, 0.5+Y, 0.5+Z
SFAC C  H  N  F
UNIT 40 40 8 16
OMIT -3 58
L.S. 4
FMAP 2
PLAN 10
SIZE 0.54 0.46 0.08
TEMP -153
CONF
WGHT    0.070000    0.150000
FVAR       1.11753
F1    4    0.874565    0.162485    0.264913    11.00000    0.03144    0.02618 =
         0.03339   -0.00806    0.00021    0.00469
F2    4    0.763283    0.108713    0.531215    11.00000    0.03670    0.02190 =
         0.04152    0.00771   -0.00555   -0.00358
F3    4    0.672209    0.223461    0.749369    11.00000    0.04084    0.04454 =
         0.02267    0.00891   -0.00047   -0.00840
F4    4    0.705955    0.394334    0.697039    11.00000    0.04301    0.04040 =
         0.02727   -0.01250   -0.00077    0.00076
N1    3    0.883846    0.338282    0.186519    11.00000    0.03664    0.02687 =
         0.02811    0.00263    0.00955   -0.00128
N2    3    0.812744    0.460444    0.423703    11.00000    0.03173    0.01764 =
         0.03281   -0.00018   -0.00383   -0.00055
PART   1
C1    1    0.937381    0.478800    0.292338    10.80000    0.02647    0.02540 =
         0.03526    0.00609   -0.00119   -0.00587
AFIX  23
H1A   2    1.069159    0.460728    0.314640    10.80000   -1.20000
H1B   2    0.938056    0.541586    0.271964    10.80000   -1.20000
AFIX   0
C2    1    0.866614    0.431142    0.157840    10.80000    0.03244    0.02866 =
         0.02957    0.00760   -0.00066   -0.00378
AFIX  23
H2A   2    0.732352    0.446298    0.138350    10.80000   -1.20000
H2B   2    0.942759    0.447202    0.069616    10.80000   -1.20000
AFIX   0
PART   2
C1A   1    0.826002    0.487545    0.276643    10.20000    0.02539
AFIX  23
H1C   2    0.862670    0.549122    0.270510    10.20000   -1.20000
H1D   2    0.704386    0.479013    0.223482    10.20000   -1.20000
AFIX   0
C2A   1    0.978444    0.430452    0.214739    10.20000    0.02577
AFIX  23
H2C   2    1.084857    0.425379    0.286071    10.20000   -1.20000
H2D   2    1.027942    0.454550    0.120522    10.20000   -1.20000
AFIX   0
PART   0
C3    1    0.823208    0.223061    0.365118    11.00000    0.01797    0.01936 =
         0.02617   -0.00159   -0.00198    0.00080
C4    1    0.768547    0.193918    0.503878    11.00000    0.02018    0.02206 =
         0.02807    0.00452   -0.00423   -0.00254
C5    1    0.724431    0.252082    0.614241    11.00000    0.02197    0.03008 =
         0.01986    0.00490   -0.00314   -0.00308
C6    1    0.740379    0.339470    0.584322    11.00000    0.02224    0.02680 =
         0.02281   -0.00336   -0.00309   -0.00061
C7    1    0.790201    0.370810    0.444574    11.00000    0.01795    0.01937 =
         0.02485   -0.00027   -0.00464   -0.00053
C8    1    0.829518    0.311149    0.329433    11.00000    0.01617    0.02132 =
         0.02331    0.00114   -0.00082    0.00064
C9    1    0.800559    0.294972    0.057048    11.00000    0.03663    0.06731 =
         0.02509    0.00934   -0.00162   -0.00124
AFIX  33
H9A   2    0.808601    0.232303    0.070316    11.00000   -1.50000
H9B   2    0.870280    0.311687   -0.032676    11.00000   -1.50000
H9C   2    0.667163    0.311995    0.047020    11.00000   -1.50000
AFIX   0
C10   1    0.644695    0.513570    0.437917    11.00000    0.03392    0.02250 =
         0.10651    0.00270   -0.00431    0.00707
AFIX  33
H10A  2    0.573594    0.496166    0.526582    11.00000   -1.50000
H10B  2    0.564610    0.506257    0.349774    11.00000   -1.50000
H10C  2    0.682097    0.574259    0.447018    11.00000   -1.50000
 
HKLF 4
 
REM  s048 in Pna2(1)
REM R1 =  0.0353 for   2531 Fo > 4sig(Fo)  and  0.0364 for all   2618 data
REM    153 parameters refined using      1 restraints
 
END  
     
WGHT      0.0644      0.1626 
REM Highest difference peak  0.379,  deepest hole -0.268,  1-sigma level  0.054
Q1    1   0.8037  0.2058  0.4411  11.00000  0.05    0.38
Q2    1   0.8156  0.3375  0.3953  11.00000  0.05    0.36
Q3    1   0.7350  0.2990  0.5989  11.00000  0.05    0.34
Q4    1   0.7526  0.2228  0.5582  11.00000  0.05    0.34
Q5    1   0.8123  0.3421  0.0859  11.00000  0.05    0.34
Q6    1   0.6308  0.5169  0.5228  11.00000  0.05    0.31
Q7    1   0.8435  0.2668  0.3538  11.00000  0.05    0.31
Q8    1   0.7656  0.3535  0.5171  11.00000  0.05    0.30
Q9    1   0.8548  0.3220  0.2631  11.00000  0.05    0.23
Q10   1   0.7292  0.3695  0.6413  11.00000  0.05    0.23
